Route 1: 0 50 94 7 69 6 8 12 53 54 26 30 34 0
Route 2: 0 46 20 48 33 96 25 58 0
Route 3: 0 62 45 59 90 70 89 63 67 10 5 79 55 0
Route 4: 0 36 9 76 57 78 74 0
Route 5: 0 42 82 28 16 97 37 99 61 66 92 0
Route 6: 0 13 40 11 87 49 83 95 0
Route 7: 0 88 17 35 86 81 1 51 15 0
Route 8: 0 98 41 2 71 27 72 0
Route 9: 0 22 18 68 23 31 65 0
Route 10: 0 93 47 19 85 73 64 24 32 14 38 0
Route 11: 0 75 39 52 80 60 100 77 3 29 21 4 44 0
Route 12: 0 56 84 43 91 0
